Minimize
  - 61 y_0 - 62 y_1 - 11 y_2 - 37 y_3 - 18 y_4 - 29 y_5 - 17 y_6 - 27 y_7
   - 28 y_8 - 39 y_9 - 9 y_10 - 26 y_11 - 22 y_12 - 35 y_13 - 28 y_14
   - 41 y_15 - 40 y_16 - 38 y_17 - 7 y_18 - 33 y_19 - 4 y_20 - 52 y_21
   - 41 y_22 - 45 y_23 - 47 y_24 - 11 y_25 - 55 y_26 - 62 y_27 - 19 y_28
   - 32 y_29 - 35 y_30 - 40 y_31 - 4 y_32 - 20 y_33 - 13 y_34 - 33 y_35
   - 52 y_36 - 41 y_37 - 27 y_38 - 15 y_39 - 44 y_40 - 20 y_41 - 27 y_42
   - 45 y_43 - 55 y_44 - 41 y_45 - 61 y_46 - 50 y_47 - 47 y_48 - 18 y_49
   - 21 y_50 - 43 y_51 - 31 y_52 - 27 y_53 - 34 y_54 - 56 y_55 - 26 y_56
   - 46 y_57 - 24 y_58 - 31 y_59 - 49 y_60 - 27 y_61 - 32 y_62 - 38 y_63
   - 43 y_64 - 25 y_65 - 58 y_66 - 20 y_67 - 24 y_68 - 34 y_69 - 50 y_70
   - 44 y_71 - 22 y_72 - 21 y_73 - 13 y_75 - 12 y_76 - 17 y_77 - 23 y_78
   - 42 y_79 - 17 y_80 - 7 y_81 - 8 y_82 - 43 y_83 - 40 y_84 - 55 y_85
   - 48 y_86 - 39 y_87 - 25 y_88 - 39 y_89 - 47 y_90 - 29 y_91 - 53 y_92
   - 50 y_93 - 38 y_94 - 23 y_95 - 56 y_96 - 46 y_97 - 20 y_98 - 46 y_99
   + 3326 Constant
Subject To
 c_0: y_12 = 1
 c_1_0: y_0 + y_27 + y_46 + y_66 >= 1
 c_1_1: y_1 >= 1
 c_1_2: y_2 + y_34 + y_76 + y_81 >= 1
 c_1_3: y_3 + y_94 >= 1
 c_1_4: y_4 + y_6 + y_33 + y_39 + y_75 >= 1
 c_1_5: y_5 + y_19 + y_42 + y_58 >= 1
 c_1_6: y_4 + y_6 + y_33 + y_39 + y_75 >= 1
 c_1_7: y_7 + y_8 + y_42 + y_65 >= 1
 c_1_8: y_7 + y_8 + y_11 + y_42 + y_65 >= 1
 c_1_9: y_9 + y_15 + y_37 + y_83 >= 1
 c_1_10: y_10 + y_81 >= 1
 c_1_11: y_8 + y_11 + y_50 + y_65 + y_68 + y_88 >= 1
 c_1_12: y_12 + y_33 + y_53 + y_78 + y_95 >= 1
 c_1_13: y_13 + y_17 + y_62 >= 1
 c_1_14: y_14 >= 1
 c_1_15: y_9 + y_15 + y_37 + y_83 >= 1
 c_1_16: y_16 + y_23 + y_31 + y_63 + y_89 >= 1
 c_1_17: y_13 + y_17 + y_94 >= 1
 c_1_18: y_18 + y_25 + y_81 + y_82 >= 1
 c_1_19: y_5 + y_19 + y_54 >= 1
 c_1_20: y_20 + y_32 + y_74 + y_81 >= 1
 c_1_21: y_21 + y_47 >= 1
 c_1_22: y_22 + y_40 + y_79 + y_87 >= 1
 c_1_23: y_16 + y_23 + y_24 + y_31 + y_43 >= 1
 c_1_24: y_23 + y_24 + y_43 >= 1
 c_1_25: y_18 + y_25 + y_39 + y_75 + y_82 >= 1
 c_1_26: y_26 + y_66 + y_92 + y_93 + y_96 >= 1
 c_1_27: y_0 + y_27 + y_46 + y_66 >= 1
 c_1_28: y_28 + y_73 >= 1
 c_1_29: y_29 + y_38 + y_59 >= 1
 c_1_30: y_30 + y_63 >= 1
 c_1_31: y_16 + y_23 + y_31 + y_43 + y_84 >= 1
 c_1_32: y_20 + y_32 + y_74 + y_81 >= 1
 c_1_33: y_4 + y_6 + y_12 + y_33 + y_78 + y_95 >= 1
 c_1_34: y_2 + y_34 + y_49 + y_76 >= 1
 c_1_35: y_35 + y_52 + y_59 >= 1
 c_1_36: y_36 + y_85 + y_92 + y_96 >= 1
 c_1_37: y_9 + y_15 + y_37 + y_83 >= 1
 c_1_38: y_29 + y_38 + y_56 + y_59 + y_61 >= 1
 c_1_39: y_4 + y_6 + y_25 + y_39 + y_75 >= 1
 c_1_40: y_22 + y_40 + y_79 + y_87 >= 1
 c_1_41: y_41 + y_49 + y_50 + y_80 >= 1
 c_1_42: y_5 + y_7 + y_8 + y_42 + y_58 + y_65 >= 1
 c_1_43: y_23 + y_24 + y_31 + y_43 + y_64 >= 1
 c_1_44: y_44 + y_55 >= 1
 c_1_45: y_45 + y_63 + y_89 >= 1
 c_1_46: y_0 + y_27 + y_46 + y_66 >= 1
 c_1_47: y_21 + y_47 + y_93 >= 1
 c_1_48: y_48 + y_86 >= 1
 c_1_49: y_34 + y_41 + y_49 + y_50 + y_98 >= 1
 c_1_50: y_11 + y_41 + y_49 + y_50 + y_65 + y_68 + y_88 >= 1
 c_1_51: y_51 + y_57 >= 1
 c_1_52: y_35 + y_52 + y_59 >= 1
 c_1_53: y_12 + y_53 + y_78 + y_91 + y_95 >= 1
 c_1_54: y_19 + y_54 >= 1
 c_1_55: y_44 + y_55 >= 1
 c_1_56: y_38 + y_56 + y_61 >= 1
 c_1_57: y_51 + y_57 + y_60 >= 1
 c_1_58: y_5 + y_42 + y_58 + y_67 + y_72 >= 1
 c_1_59: y_29 + y_35 + y_38 + y_52 + y_59 + y_61 >= 1
 c_1_60: y_57 + y_60 >= 1
 c_1_61: y_38 + y_56 + y_59 + y_61 >= 1
 c_1_62: y_13 + y_62 >= 1
 c_1_63: y_16 + y_30 + y_45 + y_63 + y_89 >= 1
 c_1_64: y_43 + y_64 + y_84 >= 1
 c_1_65: y_7 + y_8 + y_11 + y_42 + y_50 + y_65 + y_68 + y_98 >= 1
 c_1_66: y_0 + y_26 + y_27 + y_46 + y_66 >= 1
 c_1_67: y_58 + y_67 + y_72 + y_77 >= 1
 c_1_68: y_11 + y_50 + y_65 + y_68 + y_88 >= 1
 c_1_69: y_69 >= 1
 c_1_70: y_70 >= 1
 c_1_71: y_71 + y_86 >= 1
 c_1_72: y_58 + y_67 + y_72 + y_77 + y_98 >= 1
 c_1_73: y_28 + y_73 >= 1
 c_1_74: y_20 + y_32 + y_74 >= 1
 c_1_75: y_4 + y_6 + y_25 + y_39 + y_75 + y_82 >= 1
 c_1_76: y_2 + y_34 + y_76 + y_81 >= 1
 c_1_77: y_67 + y_72 + y_77 + y_98 >= 1
 c_1_78: y_12 + y_33 + y_53 + y_78 + y_95 >= 1
 c_1_79: y_22 + y_40 + y_79 + y_87 >= 1
 c_1_80: y_41 + y_80 >= 1
 c_1_81: y_2 + y_10 + y_18 + y_20 + y_32 + y_76 + y_81 >= 1
 c_1_82: y_18 + y_25 + y_75 + y_82 >= 1
 c_1_83: y_9 + y_15 + y_37 + y_83 >= 1
 c_1_84: y_31 + y_64 + y_84 >= 1
 c_1_85: y_36 + y_85 + y_96 >= 1
 c_1_86: y_48 + y_71 + y_86 >= 1
 c_1_87: y_22 + y_40 + y_79 + y_87 >= 1
 c_1_88: y_11 + y_50 + y_68 + y_88 >= 1
 c_1_89: y_16 + y_45 + y_63 + y_89 >= 1
 c_1_90: y_90 >= 1
 c_1_91: y_53 + y_91 >= 1
 c_1_92: y_26 + y_36 + y_92 + y_93 + y_96 >= 1
 c_1_93: y_26 + y_47 + y_92 + y_93 + y_97 + y_99 >= 1
 c_1_94: y_3 + y_17 + y_94 >= 1
 c_1_95: y_12 + y_33 + y_53 + y_78 + y_95 >= 1
 c_1_96: y_26 + y_36 + y_85 + y_92 + y_96 >= 1
 c_1_97: y_93 + y_97 + y_99 >= 1
 c_1_98: y_49 + y_65 + y_72 + y_77 + y_98 >= 1
 c_1_99: y_93 + y_97 + y_99 >= 1
Bounds
 Constant = 1
Binaries
 y_0 y_1 y_2 y_3 y_4 y_5 y_6 y_7 y_8 y_9 y_10 y_11 y_12 y_13 y_14 y_15 y_16
 y_17 y_18 y_19 y_20 y_21 y_22 y_23 y_24 y_25 y_26 y_27 y_28 y_29 y_30 y_31
 y_32 y_33 y_34 y_35 y_36 y_37 y_38 y_39 y_40 y_41 y_42 y_43 y_44 y_45 y_46
 y_47 y_48 y_49 y_50 y_51 y_52 y_53 y_54 y_55 y_56 y_57 y_58 y_59 y_60 y_61
 y_62 y_63 y_64 y_65 y_66 y_67 y_68 y_69 y_70 y_71 y_72 y_73 y_74 y_75 y_76
 y_77 y_78 y_79 y_80 y_81 y_82 y_83 y_84 y_85 y_86 y_87 y_88 y_89 y_90 y_91
 y_92 y_93 y_94 y_95 y_96 y_97 y_98 y_99
End
